; Benchmark for LTL-sketching problem
(set-logic QF_UF)
(set-info :status unknown)
(declare-fun z_0_0_0 () Bool)
(declare-fun z_0_1_0 () Bool)
(declare-fun z_0_2_0 () Bool)
(declare-fun z_0_3_0 () Bool)
(declare-fun z_0_4_0 () Bool)
(declare-fun z_0_5_0 () Bool)
(declare-fun z_0_6_0 () Bool)
(declare-fun z_0_7_0 () Bool)
(declare-fun z_0_8_0 () Bool)
(declare-fun z_0_9_0 () Bool)
(declare-fun z_0_10_0 () Bool)
(declare-fun z_0_11_0 () Bool)
(declare-fun z_0_12_0 () Bool)
(declare-fun z_0_13_0 () Bool)
(declare-fun z_0_14_0 () Bool)
(declare-fun z_0_15_0 () Bool)
(declare-fun z_0_16_0 () Bool)
(declare-fun z_0_17_0 () Bool)
(declare-fun z_0_18_0 () Bool)
(declare-fun z_0_19_0 () Bool)
(declare-fun z_0_20_0 () Bool)
(declare-fun z_0_21_0 () Bool)
(declare-fun z_0_22_0 () Bool)
(declare-fun z_0_23_0 () Bool)
(declare-fun z_0_24_0 () Bool)
(declare-fun z_0_25_0 () Bool)
(declare-fun z_0_26_0 () Bool)
(declare-fun z_0_27_0 () Bool)
(declare-fun z_0_28_0 () Bool)
(declare-fun z_0_29_0 () Bool)
(declare-fun z_0_30_0 () Bool)
(declare-fun z_0_31_0 () Bool)
(declare-fun z_0_32_0 () Bool)
(declare-fun z_0_33_0 () Bool)
(declare-fun z_0_34_0 () Bool)
(declare-fun z_0_35_0 () Bool)
(declare-fun z_0_36_0 () Bool)
(declare-fun z_0_37_0 () Bool)
(declare-fun z_0_38_0 () Bool)
(declare-fun z_0_39_0 () Bool)
(declare-fun z_0_40_0 () Bool)
(declare-fun z_0_41_0 () Bool)
(declare-fun z_0_42_0 () Bool)
(declare-fun z_0_43_0 () Bool)
(declare-fun z_0_44_0 () Bool)
(declare-fun z_0_45_0 () Bool)
(declare-fun z_0_46_0 () Bool)
(declare-fun z_0_47_0 () Bool)
(declare-fun z_0_48_0 () Bool)
(declare-fun z_0_49_0 () Bool)
(declare-fun z_2_0_1 () Bool)
(declare-fun z_2_0_0 () Bool)
(declare-fun z_0_0_1 () Bool)
(declare-fun z_2_1_6 () Bool)
(declare-fun z_2_1_5 () Bool)
(declare-fun z_2_1_4 () Bool)
(declare-fun z_2_1_3 () Bool)
(declare-fun z_2_1_2 () Bool)
(declare-fun z_2_1_1 () Bool)
(declare-fun z_2_1_0 () Bool)
(declare-fun z_0_1_1 () Bool)
(declare-fun z_0_1_2 () Bool)
(declare-fun z_0_1_3 () Bool)
(declare-fun z_0_1_4 () Bool)
(declare-fun z_0_1_5 () Bool)
(declare-fun z_0_1_6 () Bool)
(declare-fun z_2_2_6 () Bool)
(declare-fun z_2_2_5 () Bool)
(declare-fun z_2_2_4 () Bool)
(declare-fun z_2_2_3 () Bool)
(declare-fun z_2_2_2 () Bool)
(declare-fun z_2_2_1 () Bool)
(declare-fun z_2_2_0 () Bool)
(declare-fun z_0_2_1 () Bool)
(declare-fun z_0_2_2 () Bool)
(declare-fun z_0_2_3 () Bool)
(declare-fun z_0_2_4 () Bool)
(declare-fun z_0_2_5 () Bool)
(declare-fun z_0_2_6 () Bool)
(declare-fun z_2_3_2 () Bool)
(declare-fun z_2_3_1 () Bool)
(declare-fun z_2_3_0 () Bool)
(declare-fun z_0_3_1 () Bool)
(declare-fun z_0_3_2 () Bool)
(declare-fun z_2_4_4 () Bool)
(declare-fun z_2_4_3 () Bool)
(declare-fun z_2_4_2 () Bool)
(declare-fun z_2_4_1 () Bool)
(declare-fun z_2_4_0 () Bool)
(declare-fun z_0_4_1 () Bool)
(declare-fun z_0_4_2 () Bool)
(declare-fun z_0_4_3 () Bool)
(declare-fun z_0_4_4 () Bool)
(declare-fun z_2_5_5 () Bool)
(declare-fun z_2_5_4 () Bool)
(declare-fun z_2_5_3 () Bool)
(declare-fun z_2_5_2 () Bool)
(declare-fun z_2_5_1 () Bool)
(declare-fun z_2_5_0 () Bool)
(declare-fun z_0_5_1 () Bool)
(declare-fun z_0_5_2 () Bool)
(declare-fun z_0_5_3 () Bool)
(declare-fun z_0_5_4 () Bool)
(declare-fun z_0_5_5 () Bool)
(declare-fun z_2_6_4 () Bool)
(declare-fun z_2_6_3 () Bool)
(declare-fun z_2_6_2 () Bool)
(declare-fun z_2_6_1 () Bool)
(declare-fun z_2_6_0 () Bool)
(declare-fun z_0_6_1 () Bool)
(declare-fun z_0_6_2 () Bool)
(declare-fun z_0_6_3 () Bool)
(declare-fun z_0_6_4 () Bool)
(declare-fun z_2_7_4 () Bool)
(declare-fun z_2_7_3 () Bool)
(declare-fun z_2_7_2 () Bool)
(declare-fun z_2_7_1 () Bool)
(declare-fun z_2_7_0 () Bool)
(declare-fun z_0_7_1 () Bool)
(declare-fun z_0_7_2 () Bool)
(declare-fun z_0_7_3 () Bool)
(declare-fun z_0_7_4 () Bool)
(declare-fun z_2_8_6 () Bool)
(declare-fun z_2_8_5 () Bool)
(declare-fun z_2_8_4 () Bool)
(declare-fun z_2_8_3 () Bool)
(declare-fun z_2_8_2 () Bool)
(declare-fun z_2_8_1 () Bool)
(declare-fun z_2_8_0 () Bool)
(declare-fun z_0_8_1 () Bool)
(declare-fun z_0_8_2 () Bool)
(declare-fun z_0_8_3 () Bool)
(declare-fun z_0_8_4 () Bool)
(declare-fun z_0_8_5 () Bool)
(declare-fun z_0_8_6 () Bool)
(declare-fun z_2_9_4 () Bool)
(declare-fun z_2_9_3 () Bool)
(declare-fun z_2_9_2 () Bool)
(declare-fun z_2_9_1 () Bool)
(declare-fun z_2_9_0 () Bool)
(declare-fun z_0_9_1 () Bool)
(declare-fun z_0_9_2 () Bool)
(declare-fun z_0_9_3 () Bool)
(declare-fun z_0_9_4 () Bool)
(declare-fun z_2_10_2 () Bool)
(declare-fun z_2_10_1 () Bool)
(declare-fun z_2_10_0 () Bool)
(declare-fun z_0_10_1 () Bool)
(declare-fun z_0_10_2 () Bool)
(declare-fun z_2_11_5 () Bool)
(declare-fun z_2_11_4 () Bool)
(declare-fun z_2_11_3 () Bool)
(declare-fun z_2_11_2 () Bool)
(declare-fun z_2_11_1 () Bool)
(declare-fun z_2_11_0 () Bool)
(declare-fun z_0_11_1 () Bool)
(declare-fun z_0_11_2 () Bool)
(declare-fun z_0_11_3 () Bool)
(declare-fun z_0_11_4 () Bool)
(declare-fun z_0_11_5 () Bool)
(declare-fun z_2_12_1 () Bool)
(declare-fun z_2_12_0 () Bool)
(declare-fun z_0_12_1 () Bool)
(declare-fun z_2_13_6 () Bool)
(declare-fun z_2_13_5 () Bool)
(declare-fun z_2_13_4 () Bool)
(declare-fun z_2_13_3 () Bool)
(declare-fun z_2_13_2 () Bool)
(declare-fun z_2_13_1 () Bool)
(declare-fun z_2_13_0 () Bool)
(declare-fun z_0_13_1 () Bool)
(declare-fun z_0_13_2 () Bool)
(declare-fun z_0_13_3 () Bool)
(declare-fun z_0_13_4 () Bool)
(declare-fun z_0_13_5 () Bool)
(declare-fun z_0_13_6 () Bool)
(declare-fun z_2_14_2 () Bool)
(declare-fun z_2_14_1 () Bool)
(declare-fun z_2_14_0 () Bool)
(declare-fun z_0_14_1 () Bool)
(declare-fun z_0_14_2 () Bool)
(declare-fun z_2_15_7 () Bool)
(declare-fun z_2_15_6 () Bool)
(declare-fun z_2_15_5 () Bool)
(declare-fun z_2_15_4 () Bool)
(declare-fun z_2_15_3 () Bool)
(declare-fun z_2_15_2 () Bool)
(declare-fun z_2_15_1 () Bool)
(declare-fun z_2_15_0 () Bool)
(declare-fun z_0_15_1 () Bool)
(declare-fun z_0_15_2 () Bool)
(declare-fun z_0_15_3 () Bool)
(declare-fun z_0_15_4 () Bool)
(declare-fun z_0_15_5 () Bool)
(declare-fun z_0_15_6 () Bool)
(declare-fun z_0_15_7 () Bool)
(declare-fun z_2_16_5 () Bool)
(declare-fun z_2_16_4 () Bool)
(declare-fun z_2_16_3 () Bool)
(declare-fun z_2_16_2 () Bool)
(declare-fun z_2_16_1 () Bool)
(declare-fun z_2_16_0 () Bool)
(declare-fun z_0_16_1 () Bool)
(declare-fun z_0_16_2 () Bool)
(declare-fun z_0_16_3 () Bool)
(declare-fun z_0_16_4 () Bool)
(declare-fun z_0_16_5 () Bool)
(declare-fun z_2_17_4 () Bool)
(declare-fun z_2_17_3 () Bool)
(declare-fun z_2_17_2 () Bool)
(declare-fun z_2_17_1 () Bool)
(declare-fun z_2_17_0 () Bool)
(declare-fun z_0_17_1 () Bool)
(declare-fun z_0_17_2 () Bool)
(declare-fun z_0_17_3 () Bool)
(declare-fun z_0_17_4 () Bool)
(declare-fun z_2_18_6 () Bool)
(declare-fun z_2_18_5 () Bool)
(declare-fun z_2_18_4 () Bool)
(declare-fun z_2_18_3 () Bool)
(declare-fun z_2_18_2 () Bool)
(declare-fun z_2_18_1 () Bool)
(declare-fun z_2_18_0 () Bool)
(declare-fun z_0_18_1 () Bool)
(declare-fun z_0_18_2 () Bool)
(declare-fun z_0_18_3 () Bool)
(declare-fun z_0_18_4 () Bool)
(declare-fun z_0_18_5 () Bool)
(declare-fun z_0_18_6 () Bool)
(declare-fun z_2_19_4 () Bool)
(declare-fun z_2_19_3 () Bool)
(declare-fun z_2_19_2 () Bool)
(declare-fun z_2_19_1 () Bool)
(declare-fun z_2_19_0 () Bool)
(declare-fun z_0_19_1 () Bool)
(declare-fun z_0_19_2 () Bool)
(declare-fun z_0_19_3 () Bool)
(declare-fun z_0_19_4 () Bool)
(declare-fun z_2_20_4 () Bool)
(declare-fun z_2_20_3 () Bool)
(declare-fun z_2_20_2 () Bool)
(declare-fun z_2_20_1 () Bool)
(declare-fun z_2_20_0 () Bool)
(declare-fun z_0_20_1 () Bool)
(declare-fun z_0_20_2 () Bool)
(declare-fun z_0_20_3 () Bool)
(declare-fun z_0_20_4 () Bool)
(declare-fun z_2_21_1 () Bool)
(declare-fun z_2_21_0 () Bool)
(declare-fun z_0_21_1 () Bool)
(declare-fun z_2_22_5 () Bool)
(declare-fun z_2_22_4 () Bool)
(declare-fun z_2_22_3 () Bool)
(declare-fun z_2_22_2 () Bool)
(declare-fun z_2_22_1 () Bool)
(declare-fun z_2_22_0 () Bool)
(declare-fun z_0_22_1 () Bool)
(declare-fun z_0_22_2 () Bool)
(declare-fun z_0_22_3 () Bool)
(declare-fun z_0_22_4 () Bool)
(declare-fun z_0_22_5 () Bool)
(declare-fun z_2_23_5 () Bool)
(declare-fun z_2_23_4 () Bool)
(declare-fun z_2_23_3 () Bool)
(declare-fun z_2_23_2 () Bool)
(declare-fun z_2_23_1 () Bool)
(declare-fun z_2_23_0 () Bool)
(declare-fun z_0_23_1 () Bool)
(declare-fun z_0_23_2 () Bool)
(declare-fun z_0_23_3 () Bool)
(declare-fun z_0_23_4 () Bool)
(declare-fun z_0_23_5 () Bool)
(declare-fun z_2_24_3 () Bool)
(declare-fun z_2_24_2 () Bool)
(declare-fun z_2_24_1 () Bool)
(declare-fun z_2_24_0 () Bool)
(declare-fun z_0_24_1 () Bool)
(declare-fun z_0_24_2 () Bool)
(declare-fun z_0_24_3 () Bool)
(declare-fun z_2_25_0 () Bool)
(declare-fun z_2_26_0 () Bool)
(declare-fun z_2_27_0 () Bool)
(declare-fun z_2_28_0 () Bool)
(declare-fun z_2_29_0 () Bool)
(declare-fun z_2_30_0 () Bool)
(declare-fun z_2_31_0 () Bool)
(declare-fun z_2_32_0 () Bool)
(declare-fun z_2_33_0 () Bool)
(declare-fun z_2_34_0 () Bool)
(declare-fun z_2_35_0 () Bool)
(declare-fun z_2_36_0 () Bool)
(declare-fun z_2_37_0 () Bool)
(declare-fun z_2_38_0 () Bool)
(declare-fun z_2_39_0 () Bool)
(declare-fun z_2_40_0 () Bool)
(declare-fun z_2_41_0 () Bool)
(declare-fun z_2_42_0 () Bool)
(declare-fun z_2_43_0 () Bool)
(declare-fun z_2_44_0 () Bool)
(declare-fun z_2_45_0 () Bool)
(declare-fun z_2_46_0 () Bool)
(declare-fun z_2_47_0 () Bool)
(declare-fun z_2_48_0 () Bool)
(declare-fun z_2_49_0 () Bool)
(declare-fun x_2_p () Bool)
(declare-fun x_2_-> () Bool)
(declare-fun x_2_U () Bool)
(declare-fun x_2_v () Bool)
(declare-fun x_2_& () Bool)
(declare-fun x_2_X () Bool)
(declare-fun x_2_! () Bool)
(declare-fun x_2_F () Bool)
(declare-fun x_2_G () Bool)
(assert
 (= z_0_0_0 true))
(assert
 (= z_0_1_0 true))
(assert
 (= z_0_2_0 true))
(assert
 (= z_0_3_0 true))
(assert
 (= z_0_4_0 true))
(assert
 (= z_0_5_0 true))
(assert
 (= z_0_6_0 true))
(assert
 (= z_0_7_0 true))
(assert
 (= z_0_8_0 true))
(assert
 (= z_0_9_0 true))
(assert
 (= z_0_10_0 true))
(assert
 (= z_0_11_0 true))
(assert
 (= z_0_12_0 true))
(assert
 (= z_0_13_0 true))
(assert
 (= z_0_14_0 true))
(assert
 (= z_0_15_0 true))
(assert
 (= z_0_16_0 true))
(assert
 (= z_0_17_0 true))
(assert
 (= z_0_18_0 true))
(assert
 (= z_0_19_0 true))
(assert
 (= z_0_20_0 true))
(assert
 (= z_0_21_0 true))
(assert
 (= z_0_22_0 true))
(assert
 (= z_0_23_0 true))
(assert
 (= z_0_24_0 true))
(assert
 (= z_0_25_0 false))
(assert
 (= z_0_26_0 false))
(assert
 (= z_0_27_0 false))
(assert
 (= z_0_28_0 false))
(assert
 (= z_0_29_0 false))
(assert
 (= z_0_30_0 false))
(assert
 (= z_0_31_0 false))
(assert
 (= z_0_32_0 false))
(assert
 (= z_0_33_0 false))
(assert
 (= z_0_34_0 false))
(assert
 (= z_0_35_0 false))
(assert
 (= z_0_36_0 false))
(assert
 (= z_0_37_0 false))
(assert
 (= z_0_38_0 false))
(assert
 (= z_0_39_0 false))
(assert
 (= z_0_40_0 false))
(assert
 (= z_0_41_0 false))
(assert
 (= z_0_42_0 false))
(assert
 (= z_0_43_0 false))
(assert
 (= z_0_44_0 false))
(assert
 (= z_0_45_0 false))
(assert
 (= z_0_46_0 false))
(assert
 (= z_0_47_0 false))
(assert
 (= z_0_48_0 false))
(assert
 (= z_0_49_0 false))
(assert
 (let (($x3949 (or z_2_0_0 z_2_0_1)))
 (= z_0_0_0 $x3949)))
(assert
 (let (($x3949 (or z_2_0_0 z_2_0_1)))
 (= z_0_0_1 $x3949)))
(assert
 (let (($x3959 (or z_2_1_0 z_2_1_1 z_2_1_2 z_2_1_3 z_2_1_4 z_2_1_5 z_2_1_6)))
 (= z_0_1_0 $x3959)))
(assert
 (= z_0_1_1 (or z_2_1_1 z_2_1_2 z_2_1_3 z_2_1_4 z_2_1_5 z_2_1_6)))
(assert
 (= z_0_1_2 (or z_2_1_2 z_2_1_3 z_2_1_4 z_2_1_5 z_2_1_6)))
(assert
 (let (($x3965 (or z_2_1_3 z_2_1_4 z_2_1_5 z_2_1_6)))
 (= z_0_1_3 $x3965)))
(assert
 (let (($x3965 (or z_2_1_3 z_2_1_4 z_2_1_5 z_2_1_6)))
 (= z_0_1_4 $x3965)))
(assert
 (let (($x3965 (or z_2_1_3 z_2_1_4 z_2_1_5 z_2_1_6)))
 (= z_0_1_5 $x3965)))
(assert
 (let (($x3965 (or z_2_1_3 z_2_1_4 z_2_1_5 z_2_1_6)))
 (= z_0_1_6 $x3965)))
(assert
 (let (($x3977 (or z_2_2_0 z_2_2_1 z_2_2_2 z_2_2_3 z_2_2_4 z_2_2_5 z_2_2_6)))
 (= z_0_2_0 $x3977)))
(assert
 (= z_0_2_1 (or z_2_2_1 z_2_2_2 z_2_2_3 z_2_2_4 z_2_2_5 z_2_2_6)))
(assert
 (= z_0_2_2 (or z_2_2_2 z_2_2_3 z_2_2_4 z_2_2_5 z_2_2_6)))
(assert
 (let (($x3983 (or z_2_2_3 z_2_2_4 z_2_2_5 z_2_2_6)))
 (= z_0_2_3 $x3983)))
(assert
 (let (($x3983 (or z_2_2_3 z_2_2_4 z_2_2_5 z_2_2_6)))
 (= z_0_2_4 $x3983)))
(assert
 (let (($x3983 (or z_2_2_3 z_2_2_4 z_2_2_5 z_2_2_6)))
 (= z_0_2_5 $x3983)))
(assert
 (let (($x3983 (or z_2_2_3 z_2_2_4 z_2_2_5 z_2_2_6)))
 (= z_0_2_6 $x3983)))
(assert
 (= z_0_3_0 (or z_2_3_0 z_2_3_1 z_2_3_2)))
(assert
 (= z_0_3_1 (or z_2_3_1 z_2_3_2)))
(assert
 (= z_0_3_2 (or z_2_3_2)))
(assert
 (= z_0_4_0 (or z_2_4_0 z_2_4_1 z_2_4_2 z_2_4_3 z_2_4_4)))
(assert
 (= z_0_4_1 (or z_2_4_1 z_2_4_2 z_2_4_3 z_2_4_4)))
(assert
 (let (($x4007 (or z_2_4_2 z_2_4_3 z_2_4_4)))
 (= z_0_4_2 $x4007)))
(assert
 (let (($x4007 (or z_2_4_2 z_2_4_3 z_2_4_4)))
 (= z_0_4_3 $x4007)))
(assert
 (let (($x4007 (or z_2_4_2 z_2_4_3 z_2_4_4)))
 (= z_0_4_4 $x4007)))
(assert
 (= z_0_5_0 (or z_2_5_0 z_2_5_1 z_2_5_2 z_2_5_3 z_2_5_4 z_2_5_5)))
(assert
 (= z_0_5_1 (or z_2_5_1 z_2_5_2 z_2_5_3 z_2_5_4 z_2_5_5)))
(assert
 (= z_0_5_2 (or z_2_5_2 z_2_5_3 z_2_5_4 z_2_5_5)))
(assert
 (= z_0_5_3 (or z_2_5_3 z_2_5_4 z_2_5_5)))
(assert
 (let (($x4025 (or z_2_5_4 z_2_5_5)))
 (= z_0_5_4 $x4025)))
(assert
 (let (($x4025 (or z_2_5_4 z_2_5_5)))
 (= z_0_5_5 $x4025)))
(assert
 (= z_0_6_0 (or z_2_6_0 z_2_6_1 z_2_6_2 z_2_6_3 z_2_6_4)))
(assert
 (let (($x4035 (or z_2_6_1 z_2_6_2 z_2_6_3 z_2_6_4)))
 (= z_0_6_1 $x4035)))
(assert
 (let (($x4035 (or z_2_6_1 z_2_6_2 z_2_6_3 z_2_6_4)))
 (= z_0_6_2 $x4035)))
(assert
 (let (($x4035 (or z_2_6_1 z_2_6_2 z_2_6_3 z_2_6_4)))
 (= z_0_6_3 $x4035)))
(assert
 (let (($x4035 (or z_2_6_1 z_2_6_2 z_2_6_3 z_2_6_4)))
 (= z_0_6_4 $x4035)))
(assert
 (= z_0_7_0 (or z_2_7_0 z_2_7_1 z_2_7_2 z_2_7_3 z_2_7_4)))
(assert
 (= z_0_7_1 (or z_2_7_1 z_2_7_2 z_2_7_3 z_2_7_4)))
(assert
 (let (($x4049 (or z_2_7_2 z_2_7_3 z_2_7_4)))
 (= z_0_7_2 $x4049)))
(assert
 (let (($x4049 (or z_2_7_2 z_2_7_3 z_2_7_4)))
 (= z_0_7_3 $x4049)))
(assert
 (let (($x4049 (or z_2_7_2 z_2_7_3 z_2_7_4)))
 (= z_0_7_4 $x4049)))
(assert
 (let (($x4060 (or z_2_8_0 z_2_8_1 z_2_8_2 z_2_8_3 z_2_8_4 z_2_8_5 z_2_8_6)))
 (= z_0_8_0 $x4060)))
(assert
 (= z_0_8_1 (or z_2_8_1 z_2_8_2 z_2_8_3 z_2_8_4 z_2_8_5 z_2_8_6)))
(assert
 (= z_0_8_2 (or z_2_8_2 z_2_8_3 z_2_8_4 z_2_8_5 z_2_8_6)))
(assert
 (= z_0_8_3 (or z_2_8_3 z_2_8_4 z_2_8_5 z_2_8_6)))
(assert
 (let (($x4068 (or z_2_8_4 z_2_8_5 z_2_8_6)))
 (= z_0_8_4 $x4068)))
(assert
 (let (($x4068 (or z_2_8_4 z_2_8_5 z_2_8_6)))
 (= z_0_8_5 $x4068)))
(assert
 (let (($x4068 (or z_2_8_4 z_2_8_5 z_2_8_6)))
 (= z_0_8_6 $x4068)))
(assert
 (= z_0_9_0 (or z_2_9_0 z_2_9_1 z_2_9_2 z_2_9_3 z_2_9_4)))
(assert
 (= z_0_9_1 (or z_2_9_1 z_2_9_2 z_2_9_3 z_2_9_4)))
(assert
 (= z_0_9_2 (or z_2_9_2 z_2_9_3 z_2_9_4)))
(assert
 (let (($x4083 (or z_2_9_3 z_2_9_4)))
 (= z_0_9_3 $x4083)))
(assert
 (let (($x4083 (or z_2_9_3 z_2_9_4)))
 (= z_0_9_4 $x4083)))
(assert
 (= z_0_10_0 (or z_2_10_0 z_2_10_1 z_2_10_2)))
(assert
 (= z_0_10_1 (or z_2_10_1 z_2_10_2)))
(assert
 (= z_0_10_2 (or z_2_10_2)))
(assert
 (= z_0_11_0 (or z_2_11_0 z_2_11_1 z_2_11_2 z_2_11_3 z_2_11_4 z_2_11_5)))
(assert
 (= z_0_11_1 (or z_2_11_1 z_2_11_2 z_2_11_3 z_2_11_4 z_2_11_5)))
(assert
 (let (($x4106 (or z_2_11_2 z_2_11_3 z_2_11_4 z_2_11_5)))
 (= z_0_11_2 $x4106)))
(assert
 (let (($x4106 (or z_2_11_2 z_2_11_3 z_2_11_4 z_2_11_5)))
 (= z_0_11_3 $x4106)))
(assert
 (let (($x4106 (or z_2_11_2 z_2_11_3 z_2_11_4 z_2_11_5)))
 (= z_0_11_4 $x4106)))
(assert
 (let (($x4106 (or z_2_11_2 z_2_11_3 z_2_11_4 z_2_11_5)))
 (= z_0_11_5 $x4106)))
(assert
 (= z_0_12_0 (or z_2_12_0 z_2_12_1)))
(assert
 (= z_0_12_1 (or z_2_12_1)))
(assert
 (let (($x4125 (or z_2_13_0 z_2_13_1 z_2_13_2 z_2_13_3 z_2_13_4 z_2_13_5 z_2_13_6)))
 (= z_0_13_0 $x4125)))
(assert
 (= z_0_13_1 (or z_2_13_1 z_2_13_2 z_2_13_3 z_2_13_4 z_2_13_5 z_2_13_6)))
(assert
 (= z_0_13_2 (or z_2_13_2 z_2_13_3 z_2_13_4 z_2_13_5 z_2_13_6)))
(assert
 (let (($x4131 (or z_2_13_3 z_2_13_4 z_2_13_5 z_2_13_6)))
 (= z_0_13_3 $x4131)))
(assert
 (let (($x4131 (or z_2_13_3 z_2_13_4 z_2_13_5 z_2_13_6)))
 (= z_0_13_4 $x4131)))
(assert
 (let (($x4131 (or z_2_13_3 z_2_13_4 z_2_13_5 z_2_13_6)))
 (= z_0_13_5 $x4131)))
(assert
 (let (($x4131 (or z_2_13_3 z_2_13_4 z_2_13_5 z_2_13_6)))
 (= z_0_13_6 $x4131)))
(assert
 (= z_0_14_0 (or z_2_14_0 z_2_14_1 z_2_14_2)))
(assert
 (let (($x4141 (or z_2_14_1 z_2_14_2)))
 (= z_0_14_1 $x4141)))
(assert
 (let (($x4141 (or z_2_14_1 z_2_14_2)))
 (= z_0_14_2 $x4141)))
(assert
 (let (($x4152 (or z_2_15_0 z_2_15_1 z_2_15_2 z_2_15_3 z_2_15_4 z_2_15_5 z_2_15_6 z_2_15_7)))
 (= z_0_15_0 $x4152)))
(assert
 (let (($x4154 (or z_2_15_1 z_2_15_2 z_2_15_3 z_2_15_4 z_2_15_5 z_2_15_6 z_2_15_7)))
 (= z_0_15_1 $x4154)))
(assert
 (= z_0_15_2 (or z_2_15_2 z_2_15_3 z_2_15_4 z_2_15_5 z_2_15_6 z_2_15_7)))
(assert
 (= z_0_15_3 (or z_2_15_3 z_2_15_4 z_2_15_5 z_2_15_6 z_2_15_7)))
(assert
 (let (($x4160 (or z_2_15_4 z_2_15_5 z_2_15_6 z_2_15_7)))
 (= z_0_15_4 $x4160)))
(assert
 (let (($x4160 (or z_2_15_4 z_2_15_5 z_2_15_6 z_2_15_7)))
 (= z_0_15_5 $x4160)))
(assert
 (let (($x4160 (or z_2_15_4 z_2_15_5 z_2_15_6 z_2_15_7)))
 (= z_0_15_6 $x4160)))
(assert
 (let (($x4160 (or z_2_15_4 z_2_15_5 z_2_15_6 z_2_15_7)))
 (= z_0_15_7 $x4160)))
(assert
 (= z_0_16_0 (or z_2_16_0 z_2_16_1 z_2_16_2 z_2_16_3 z_2_16_4 z_2_16_5)))
(assert
 (= z_0_16_1 (or z_2_16_1 z_2_16_2 z_2_16_3 z_2_16_4 z_2_16_5)))
(assert
 (= z_0_16_2 (or z_2_16_2 z_2_16_3 z_2_16_4 z_2_16_5)))
(assert
 (let (($x4177 (or z_2_16_3 z_2_16_4 z_2_16_5)))
 (= z_0_16_3 $x4177)))
(assert
 (let (($x4177 (or z_2_16_3 z_2_16_4 z_2_16_5)))
 (= z_0_16_4 $x4177)))
(assert
 (let (($x4177 (or z_2_16_3 z_2_16_4 z_2_16_5)))
 (= z_0_16_5 $x4177)))
(assert
 (= z_0_17_0 (or z_2_17_0 z_2_17_1 z_2_17_2 z_2_17_3 z_2_17_4)))
(assert
 (= z_0_17_1 (or z_2_17_1 z_2_17_2 z_2_17_3 z_2_17_4)))
(assert
 (let (($x4190 (or z_2_17_2 z_2_17_3 z_2_17_4)))
 (= z_0_17_2 $x4190)))
(assert
 (let (($x4190 (or z_2_17_2 z_2_17_3 z_2_17_4)))
 (= z_0_17_3 $x4190)))
(assert
 (let (($x4190 (or z_2_17_2 z_2_17_3 z_2_17_4)))
 (= z_0_17_4 $x4190)))
(assert
 (let (($x4201 (or z_2_18_0 z_2_18_1 z_2_18_2 z_2_18_3 z_2_18_4 z_2_18_5 z_2_18_6)))
 (= z_0_18_0 $x4201)))
(assert
 (= z_0_18_1 (or z_2_18_1 z_2_18_2 z_2_18_3 z_2_18_4 z_2_18_5 z_2_18_6)))
(assert
 (= z_0_18_2 (or z_2_18_2 z_2_18_3 z_2_18_4 z_2_18_5 z_2_18_6)))
(assert
 (let (($x4207 (or z_2_18_3 z_2_18_4 z_2_18_5 z_2_18_6)))
 (= z_0_18_3 $x4207)))
(assert
 (let (($x4207 (or z_2_18_3 z_2_18_4 z_2_18_5 z_2_18_6)))
 (= z_0_18_4 $x4207)))
(assert
 (let (($x4207 (or z_2_18_3 z_2_18_4 z_2_18_5 z_2_18_6)))
 (= z_0_18_5 $x4207)))
(assert
 (let (($x4207 (or z_2_18_3 z_2_18_4 z_2_18_5 z_2_18_6)))
 (= z_0_18_6 $x4207)))
(assert
 (= z_0_19_0 (or z_2_19_0 z_2_19_1 z_2_19_2 z_2_19_3 z_2_19_4)))
(assert
 (= z_0_19_1 (or z_2_19_1 z_2_19_2 z_2_19_3 z_2_19_4)))
(assert
 (= z_0_19_2 (or z_2_19_2 z_2_19_3 z_2_19_4)))
(assert
 (= z_0_19_3 (or z_2_19_3 z_2_19_4)))
(assert
 (= z_0_19_4 (or z_2_19_4)))
(assert
 (= z_0_20_0 (or z_2_20_0 z_2_20_1 z_2_20_2 z_2_20_3 z_2_20_4)))
(assert
 (= z_0_20_1 (or z_2_20_1 z_2_20_2 z_2_20_3 z_2_20_4)))
(assert
 (let (($x4237 (or z_2_20_2 z_2_20_3 z_2_20_4)))
 (= z_0_20_2 $x4237)))
(assert
 (let (($x4237 (or z_2_20_2 z_2_20_3 z_2_20_4)))
 (= z_0_20_3 $x4237)))
(assert
 (let (($x4237 (or z_2_20_2 z_2_20_3 z_2_20_4)))
 (= z_0_20_4 $x4237)))
(assert
 (= z_0_21_0 (or z_2_21_0 z_2_21_1)))
(assert
 (= z_0_21_1 (or z_2_21_1)))
(assert
 (= z_0_22_0 (or z_2_22_0 z_2_22_1 z_2_22_2 z_2_22_3 z_2_22_4 z_2_22_5)))
(assert
 (= z_0_22_1 (or z_2_22_1 z_2_22_2 z_2_22_3 z_2_22_4 z_2_22_5)))
(assert
 (let (($x4258 (or z_2_22_2 z_2_22_3 z_2_22_4 z_2_22_5)))
 (= z_0_22_2 $x4258)))
(assert
 (let (($x4258 (or z_2_22_2 z_2_22_3 z_2_22_4 z_2_22_5)))
 (= z_0_22_3 $x4258)))
(assert
 (let (($x4258 (or z_2_22_2 z_2_22_3 z_2_22_4 z_2_22_5)))
 (= z_0_22_4 $x4258)))
(assert
 (let (($x4258 (or z_2_22_2 z_2_22_3 z_2_22_4 z_2_22_5)))
 (= z_0_22_5 $x4258)))
(assert
 (= z_0_23_0 (or z_2_23_0 z_2_23_1 z_2_23_2 z_2_23_3 z_2_23_4 z_2_23_5)))
(assert
 (= z_0_23_1 (or z_2_23_1 z_2_23_2 z_2_23_3 z_2_23_4 z_2_23_5)))
(assert
 (= z_0_23_2 (or z_2_23_2 z_2_23_3 z_2_23_4 z_2_23_5)))
(assert
 (let (($x4275 (or z_2_23_3 z_2_23_4 z_2_23_5)))
 (= z_0_23_3 $x4275)))
(assert
 (let (($x4275 (or z_2_23_3 z_2_23_4 z_2_23_5)))
 (= z_0_23_4 $x4275)))
(assert
 (let (($x4275 (or z_2_23_3 z_2_23_4 z_2_23_5)))
 (= z_0_23_5 $x4275)))
(assert
 (= z_0_24_0 (or z_2_24_0 z_2_24_1 z_2_24_2 z_2_24_3)))
(assert
 (let (($x4285 (or z_2_24_1 z_2_24_2 z_2_24_3)))
 (= z_0_24_1 $x4285)))
(assert
 (let (($x4285 (or z_2_24_1 z_2_24_2 z_2_24_3)))
 (= z_0_24_2 $x4285)))
(assert
 (let (($x4285 (or z_2_24_1 z_2_24_2 z_2_24_3)))
 (= z_0_24_3 $x4285)))
(assert
 (= z_0_25_0 (or z_2_25_0)))
(assert
 (= z_0_26_0 (or z_2_26_0)))
(assert
 (= z_0_27_0 (or z_2_27_0)))
(assert
 (= z_0_28_0 (or z_2_28_0)))
(assert
 (= z_0_29_0 (or z_2_29_0)))
(assert
 (= z_0_30_0 (or z_2_30_0)))
(assert
 (= z_0_31_0 (or z_2_31_0)))
(assert
 (= z_0_32_0 (or z_2_32_0)))
(assert
 (= z_0_33_0 (or z_2_33_0)))
(assert
 (= z_0_34_0 (or z_2_34_0)))
(assert
 (= z_0_35_0 (or z_2_35_0)))
(assert
 (= z_0_36_0 (or z_2_36_0)))
(assert
 (= z_0_37_0 (or z_2_37_0)))
(assert
 (= z_0_38_0 (or z_2_38_0)))
(assert
 (= z_0_39_0 (or z_2_39_0)))
(assert
 (= z_0_40_0 (or z_2_40_0)))
(assert
 (= z_0_41_0 (or z_2_41_0)))
(assert
 (= z_0_42_0 (or z_2_42_0)))
(assert
 (= z_0_43_0 (or z_2_43_0)))
(assert
 (= z_0_44_0 (or z_2_44_0)))
(assert
 (= z_0_45_0 (or z_2_45_0)))
(assert
 (= z_0_46_0 (or z_2_46_0)))
(assert
 (= z_0_47_0 (or z_2_47_0)))
(assert
 (= z_0_48_0 (or z_2_48_0)))
(assert
 (= z_0_49_0 (or z_2_49_0)))
(assert
 (and true true))
(assert
 (=> x_2_p z_2_0_0))
(assert
 (let (($x4412 (not z_2_0_1)))
 (=> x_2_p $x4412)))
(assert
 (let (($x4415 (not z_2_1_0)))
 (=> x_2_p $x4415)))
(assert
 (let (($x4418 (not z_2_1_1)))
 (=> x_2_p $x4418)))
(assert
 (=> x_2_p z_2_1_2))
(assert
 (let (($x4423 (not z_2_1_3)))
 (=> x_2_p $x4423)))
(assert
 (=> x_2_p z_2_1_4))
(assert
 (let (($x4428 (not z_2_1_5)))
 (=> x_2_p $x4428)))
(assert
 (let (($x4431 (not z_2_1_6)))
 (=> x_2_p $x4431)))
(assert
 (=> x_2_p z_2_2_0))
(assert
 (=> x_2_p z_2_2_1))
(assert
 (let (($x4438 (not z_2_2_2)))
 (=> x_2_p $x4438)))
(assert
 (=> x_2_p z_2_2_3))
(assert
 (=> x_2_p z_2_2_4))
(assert
 (let (($x4445 (not z_2_2_5)))
 (=> x_2_p $x4445)))
(assert
 (=> x_2_p z_2_2_6))
(assert
 (=> x_2_p z_2_3_0))
(assert
 (=> x_2_p z_2_3_1))
(assert
 (let (($x4454 (not z_2_3_2)))
 (=> x_2_p $x4454)))
(assert
 (=> x_2_p z_2_4_0))
(assert
 (let (($x4459 (not z_2_4_1)))
 (=> x_2_p $x4459)))
(assert
 (let (($x4462 (not z_2_4_2)))
 (=> x_2_p $x4462)))
(assert
 (let (($x4465 (not z_2_4_3)))
 (=> x_2_p $x4465)))
(assert
 (=> x_2_p z_2_4_4))
(assert
 (let (($x4470 (not z_2_5_0)))
 (=> x_2_p $x4470)))
(assert
 (let (($x4473 (not z_2_5_1)))
 (=> x_2_p $x4473)))
(assert
 (let (($x4476 (not z_2_5_2)))
 (=> x_2_p $x4476)))
(assert
 (=> x_2_p z_2_5_3))
(assert
 (=> x_2_p z_2_5_4))
(assert
 (let (($x4483 (not z_2_5_5)))
 (=> x_2_p $x4483)))
(assert
 (let (($x4486 (not z_2_6_0)))
 (=> x_2_p $x4486)))
(assert
 (=> x_2_p z_2_6_1))
(assert
 (=> x_2_p z_2_6_2))
(assert
 (let (($x4493 (not z_2_6_3)))
 (=> x_2_p $x4493)))
(assert
 (=> x_2_p z_2_6_4))
(assert
 (=> x_2_p z_2_7_0))
(assert
 (let (($x4500 (not z_2_7_1)))
 (=> x_2_p $x4500)))
(assert
 (let (($x4503 (not z_2_7_2)))
 (=> x_2_p $x4503)))
(assert
 (let (($x4506 (not z_2_7_3)))
 (=> x_2_p $x4506)))
(assert
 (=> x_2_p z_2_7_4))
(assert
 (let (($x4511 (not z_2_8_0)))
 (=> x_2_p $x4511)))
(assert
 (let (($x4514 (not z_2_8_1)))
 (=> x_2_p $x4514)))
(assert
 (let (($x4517 (not z_2_8_2)))
 (=> x_2_p $x4517)))
(assert
 (=> x_2_p z_2_8_3))
(assert
 (=> x_2_p z_2_8_4))
(assert
 (let (($x4524 (not z_2_8_5)))
 (=> x_2_p $x4524)))
(assert
 (let (($x4527 (not z_2_8_6)))
 (=> x_2_p $x4527)))
(assert
 (=> x_2_p z_2_9_0))
(assert
 (let (($x4532 (not z_2_9_1)))
 (=> x_2_p $x4532)))
(assert
 (let (($x4535 (not z_2_9_2)))
 (=> x_2_p $x4535)))
(assert
 (let (($x4538 (not z_2_9_3)))
 (=> x_2_p $x4538)))
(assert
 (=> x_2_p z_2_9_4))
(assert
 (=> x_2_p z_2_10_0))
(assert
 (let (($x4545 (not z_2_10_1)))
 (=> x_2_p $x4545)))
(assert
 (=> x_2_p z_2_10_2))
(assert
 (=> x_2_p z_2_11_0))
(assert
 (=> x_2_p z_2_11_1))
(assert
 (=> x_2_p z_2_11_2))
(assert
 (=> x_2_p z_2_11_3))
(assert
 (=> x_2_p z_2_11_4))
(assert
 (let (($x4560 (not z_2_11_5)))
 (=> x_2_p $x4560)))
(assert
 (=> x_2_p z_2_12_0))
(assert
 (let (($x4565 (not z_2_12_1)))
 (=> x_2_p $x4565)))
(assert
 (=> x_2_p z_2_13_0))
(assert
 (let (($x4570 (not z_2_13_1)))
 (=> x_2_p $x4570)))
(assert
 (=> x_2_p z_2_13_2))
(assert
 (=> x_2_p z_2_13_3))
(assert
 (=> x_2_p z_2_13_4))
(assert
 (=> x_2_p z_2_13_5))
(assert
 (let (($x4581 (not z_2_13_6)))
 (=> x_2_p $x4581)))
(assert
 (=> x_2_p z_2_14_0))
(assert
 (=> x_2_p z_2_14_1))
(assert
 (let (($x4588 (not z_2_14_2)))
 (=> x_2_p $x4588)))
(assert
 (let (($x4591 (not z_2_15_0)))
 (=> x_2_p $x4591)))
(assert
 (let (($x4594 (not z_2_15_1)))
 (=> x_2_p $x4594)))
(assert
 (let (($x4597 (not z_2_15_2)))
 (=> x_2_p $x4597)))
(assert
 (=> x_2_p z_2_15_3))
(assert
 (=> x_2_p z_2_15_4))
(assert
 (=> x_2_p z_2_15_5))
(assert
 (let (($x4606 (not z_2_15_6)))
 (=> x_2_p $x4606)))
(assert
 (let (($x4609 (not z_2_15_7)))
 (=> x_2_p $x4609)))
(assert
 (=> x_2_p z_2_16_0))
(assert
 (=> x_2_p z_2_16_1))
(assert
 (let (($x4616 (not z_2_16_2)))
 (=> x_2_p $x4616)))
(assert
 (let (($x4619 (not z_2_16_3)))
 (=> x_2_p $x4619)))
(assert
 (=> x_2_p z_2_16_4))
(assert
 (=> x_2_p z_2_16_5))
(assert
 (=> x_2_p z_2_17_0))
(assert
 (let (($x4628 (not z_2_17_1)))
 (=> x_2_p $x4628)))
(assert
 (let (($x4631 (not z_2_17_2)))
 (=> x_2_p $x4631)))
(assert
 (=> x_2_p z_2_17_3))
(assert
 (=> x_2_p z_2_17_4))
(assert
 (=> x_2_p z_2_18_0))
(assert
 (=> x_2_p z_2_18_1))
(assert
 (=> x_2_p z_2_18_2))
(assert
 (let (($x4644 (not z_2_18_3)))
 (=> x_2_p $x4644)))
(assert
 (=> x_2_p z_2_18_4))
(assert
 (let (($x4649 (not z_2_18_5)))
 (=> x_2_p $x4649)))
(assert
 (let (($x4652 (not z_2_18_6)))
 (=> x_2_p $x4652)))
(assert
 (=> x_2_p z_2_19_0))
(assert
 (let (($x4657 (not z_2_19_1)))
 (=> x_2_p $x4657)))
(assert
 (let (($x4660 (not z_2_19_2)))
 (=> x_2_p $x4660)))
(assert
 (=> x_2_p z_2_19_3))
(assert
 (let (($x4665 (not z_2_19_4)))
 (=> x_2_p $x4665)))
(assert
 (=> x_2_p z_2_20_0))
(assert
 (let (($x4670 (not z_2_20_1)))
 (=> x_2_p $x4670)))
(assert
 (let (($x4673 (not z_2_20_2)))
 (=> x_2_p $x4673)))
(assert
 (let (($x4676 (not z_2_20_3)))
 (=> x_2_p $x4676)))
(assert
 (=> x_2_p z_2_20_4))
(assert
 (=> x_2_p z_2_21_0))
(assert
 (let (($x4683 (not z_2_21_1)))
 (=> x_2_p $x4683)))
(assert
 (=> x_2_p z_2_22_0))
(assert
 (=> x_2_p z_2_22_1))
(assert
 (=> x_2_p z_2_22_2))
(assert
 (=> x_2_p z_2_22_3))
(assert
 (=> x_2_p z_2_22_4))
(assert
 (let (($x4696 (not z_2_22_5)))
 (=> x_2_p $x4696)))
(assert
 (=> x_2_p z_2_23_0))
(assert
 (let (($x4701 (not z_2_23_1)))
 (=> x_2_p $x4701)))
(assert
 (let (($x4704 (not z_2_23_2)))
 (=> x_2_p $x4704)))
(assert
 (let (($x4707 (not z_2_23_3)))
 (=> x_2_p $x4707)))
(assert
 (=> x_2_p z_2_23_4))
(assert
 (=> x_2_p z_2_23_5))
(assert
 (let (($x4714 (not z_2_24_0)))
 (=> x_2_p $x4714)))
(assert
 (let (($x4717 (not z_2_24_1)))
 (=> x_2_p $x4717)))
(assert
 (=> x_2_p z_2_24_2))
(assert
 (=> x_2_p z_2_24_3))
(assert
 (let (($x4724 (not z_2_25_0)))
 (=> x_2_p $x4724)))
(assert
 (let (($x4727 (not z_2_26_0)))
 (=> x_2_p $x4727)))
(assert
 (let (($x4730 (not z_2_27_0)))
 (=> x_2_p $x4730)))
(assert
 (let (($x4733 (not z_2_28_0)))
 (=> x_2_p $x4733)))
(assert
 (let (($x4736 (not z_2_29_0)))
 (=> x_2_p $x4736)))
(assert
 (let (($x4739 (not z_2_30_0)))
 (=> x_2_p $x4739)))
(assert
 (let (($x4742 (not z_2_31_0)))
 (=> x_2_p $x4742)))
(assert
 (let (($x4745 (not z_2_32_0)))
 (=> x_2_p $x4745)))
(assert
 (let (($x4748 (not z_2_33_0)))
 (=> x_2_p $x4748)))
(assert
 (let (($x4751 (not z_2_34_0)))
 (=> x_2_p $x4751)))
(assert
 (let (($x4754 (not z_2_35_0)))
 (=> x_2_p $x4754)))
(assert
 (let (($x4757 (not z_2_36_0)))
 (=> x_2_p $x4757)))
(assert
 (let (($x4760 (not z_2_37_0)))
 (=> x_2_p $x4760)))
(assert
 (let (($x4763 (not z_2_38_0)))
 (=> x_2_p $x4763)))
(assert
 (let (($x4766 (not z_2_39_0)))
 (=> x_2_p $x4766)))
(assert
 (let (($x4769 (not z_2_40_0)))
 (=> x_2_p $x4769)))
(assert
 (let (($x4772 (not z_2_41_0)))
 (=> x_2_p $x4772)))
(assert
 (let (($x4775 (not z_2_42_0)))
 (=> x_2_p $x4775)))
(assert
 (let (($x4778 (not z_2_43_0)))
 (=> x_2_p $x4778)))
(assert
 (let (($x4781 (not z_2_44_0)))
 (=> x_2_p $x4781)))
(assert
 (let (($x4784 (not z_2_45_0)))
 (=> x_2_p $x4784)))
(assert
 (let (($x4787 (not z_2_46_0)))
 (=> x_2_p $x4787)))
(assert
 (let (($x4790 (not z_2_47_0)))
 (=> x_2_p $x4790)))
(assert
 (let (($x4793 (not z_2_48_0)))
 (=> x_2_p $x4793)))
(assert
 (let (($x4796 (not z_2_49_0)))
 (=> x_2_p $x4796)))
(assert
 (or x_2_p))
(assert
 (let (($x4407 (not x_2_->)))
 (let (($x4405 (not x_2_U)))
 (let (($x4403 (not x_2_v)))
 (let (($x4401 (not x_2_&)))
 (let (($x4399 (not x_2_X)))
 (let (($x4397 (not x_2_!)))
 (let (($x4395 (not x_2_F)))
 (let (($x4393 (not x_2_G)))
 (and $x4393 $x4395 $x4397 $x4399 $x4401 $x4403 $x4405 $x4407))))))))))
(check-sat)

